p tw 240 480
1 2
1 17
2 3
2 18
3 4
3 19
4 5
4 20
5 6
5 21
6 7
6 22
7 8
7 23
8 9
8 24
9 10
9 25
10 11
10 26
11 12
11 27
12 13
12 28
13 14
13 29
14 15
14 30
15 16
15 31
16 1
16 32
17 18
17 33
18 19
18 34
19 20
19 35
20 21
20 36
21 22
21 37
22 23
22 38
23 24
23 39
24 25
24 40
25 26
25 41
26 27
26 42
27 28
27 43
28 29
28 44
29 30
29 45
30 31
30 46
31 32
31 47
32 17
32 48
33 34
33 49
34 35
34 50
35 36
35 51
36 37
36 52
37 38
37 53
38 39
38 54
39 40
39 55
40 41
40 56
41 42
41 57
42 43
42 58
43 44
43 59
44 45
44 60
45 46
45 61
46 47
46 62
47 48
47 63
48 33
48 64
49 50
49 65
50 51
50 66
51 52
51 67
52 53
52 68
53 54
53 69
54 55
54 70
55 56
55 71
56 57
56 72
57 58
57 73
58 59
58 74
59 60
59 75
60 61
60 76
61 62
61 77
62 63
62 78
63 64
63 79
64 49
64 80
65 66
65 81
66 67
66 82
67 68
67 83
68 69
68 84
69 70
69 85
70 71
70 86
71 72
71 87
72 73
72 88
73 74
73 89
74 75
74 90
75 76
75 91
76 77
76 92
77 78
77 93
78 79
78 94
79 80
79 95
80 65
80 96
81 82
81 97
82 83
82 98
83 84
83 99
84 85
84 100
85 86
85 101
86 87
86 102
87 88
87 103
88 89
88 104
89 90
89 105
90 91
90 106
91 92
91 107
92 93
92 108
93 94
93 109
94 95
94 110
95 96
95 111
96 81
96 112
97 98
97 113
98 99
98 114
99 100
99 115
100 101
100 116
101 102
101 117
102 103
102 118
103 104
103 119
104 105
104 120
105 106
105 121
106 107
106 122
107 108
107 123
108 109
108 124
109 110
109 125
110 111
110 126
111 112
111 127
112 97
112 128
113 114
113 129
114 115
114 130
115 116
115 131
116 117
116 132
117 118
117 133
118 119
118 134
119 120
119 135
120 121
120 136
121 122
121 137
122 123
122 138
123 124
123 139
124 125
124 140
125 126
125 141
126 127
126 142
127 128
127 143
128 113
128 144
129 130
129 145
130 131
130 146
131 132
131 147
132 133
132 148
133 134
133 149
134 135
134 150
135 136
135 151
136 137
136 152
137 138
137 153
138 139
138 154
139 140
139 155
140 141
140 156
141 142
141 157
142 143
142 158
143 144
143 159
144 129
144 160
145 146
145 161
146 147
146 162
147 148
147 163
148 149
148 164
149 150
149 165
150 151
150 166
151 152
151 167
152 153
152 168
153 154
153 169
154 155
154 170
155 156
155 171
156 157
156 172
157 158
157 173
158 159
158 174
159 160
159 175
160 145
160 176
161 162
161 177
162 163
162 178
163 164
163 179
164 165
164 180
165 166
165 181
166 167
166 182
167 168
167 183
168 169
168 184
169 170
169 185
170 171
170 186
171 172
171 187
172 173
172 188
173 174
173 189
174 175
174 190
175 176
175 191
176 161
176 192
177 178
177 193
178 179
178 194
179 180
179 195
180 181
180 196
181 182
181 197
182 183
182 198
183 184
183 199
184 185
184 200
185 186
185 201
186 187
186 202
187 188
187 203
188 189
188 204
189 190
189 205
190 191
190 206
191 192
191 207
192 177
192 208
193 194
193 209
194 195
194 210
195 196
195 211
196 197
196 212
197 198
197 213
198 199
198 214
199 200
199 215
200 201
200 216
201 202
201 217
202 203
202 218
203 204
203 219
204 205
204 220
205 206
205 221
206 207
206 222
207 208
207 223
208 193
208 224
209 210
209 225
210 211
210 226
211 212
211 227
212 213
212 228
213 214
213 229
214 215
214 230
215 216
215 231
216 217
216 232
217 218
217 233
218 219
218 234
219 220
219 235
220 221
220 236
221 222
221 237
222 223
222 238
223 224
223 239
224 209
224 240
225 226
225 1
226 227
226 2
227 228
227 3
228 229
228 4
229 230
229 5
230 231
230 6
231 232
231 7
232 233
232 8
233 234
233 9
234 235
234 10
235 236
235 11
236 237
236 12
237 238
237 13
238 239
238 14
239 240
239 15
240 225
240 16
